c FILE: i080-041

c SOURCE: From steinlib

c DESCRIPTION: Steinlib instance with 80 nodes and 632 edges.

p edge 80 632
e 1 4
e 1 9
e 1 10
e 1 12
e 1 13
e 1 14
e 1 20
e 1 23
e 1 25
e 1 35
e 1 42
e 1 44
e 1 45
e 1 46
e 1 47
e 1 48
e 1 63
e 1 66
e 1 67
e 1 69
e 1 73
e 2 4
e 2 5
e 2 7
e 2 10
e 2 30
e 2 39
e 2 40
e 2 50
e 2 51
e 2 55
e 2 58
e 2 66
e 2 67
e 2 69
e 2 70
e 2 71
e 2 73
e 2 79
e 3 4
e 3 7
e 3 15
e 3 20
e 3 23
e 3 24
e 3 28
e 3 32
e 3 33
e 3 36
e 3 37
e 3 47
e 3 54
e 3 66
e 3 68
e 3 72
e 3 73
e 3 77
e 4 7
e 4 10
e 4 13
e 4 15
e 4 19
e 4 23
e 4 24
e 4 25
e 4 33
e 4 34
e 4 38
e 4 61
e 4 65
e 4 66
e 4 70
e 5 10
e 5 21
e 5 22
e 5 25
e 5 29
e 5 31
e 5 47
e 5 52
e 5 60
e 5 67
e 5 71
e 5 73
e 5 75
e 5 76
e 6 10
e 6 15
e 6 22
e 6 28
e 6 33
e 6 39
e 6 40
e 6 41
e 6 55
e 6 59
e 6 60
e 6 66
e 6 69
e 6 72
e 6 78
e 6 80
e 7 16
e 7 18
e 7 27
e 7 28
e 7 37
e 7 42
e 7 50
e 7 54
e 7 55
e 7 62
e 7 74
e 7 76
e 8 9
e 8 13
e 8 16
e 8 18
e 8 24
e 8 26
e 8 29
e 8 37
e 8 38
e 8 43
e 8 48
e 8 60
e 8 67
e 8 70
e 8 73
e 8 74
e 8 75
e 8 77
e 9 16
e 9 17
e 9 21
e 9 39
e 9 40
e 9 42
e 9 45
e 9 54
e 9 62
e 9 74
e 9 75
e 9 76
e 9 77
e 9 78
e 9 80
e 10 15
e 10 17
e 10 22
e 10 23
e 10 33
e 10 36
e 10 47
e 10 48
e 10 50
e 10 51
e 10 53
e 10 67
e 10 71
e 10 74
e 11 13
e 11 17
e 11 20
e 11 21
e 11 32
e 11 33
e 11 35
e 11 38
e 11 45
e 11 48
e 11 80
e 12 17
e 12 22
e 12 23
e 12 26
e 12 29
e 12 30
e 12 31
e 12 34
e 12 48
e 12 54
e 12 59
e 12 65
e 12 67
e 12 68
e 12 78
e 13 19
e 13 20
e 13 21
e 13 25
e 13 28
e 13 33
e 13 37
e 13 38
e 13 39
e 13 40
e 13 43
e 13 44
e 13 54
e 13 55
e 13 62
e 13 63
e 13 70
e 13 79
e 14 24
e 14 30
e 14 32
e 14 34
e 14 37
e 14 38
e 14 47
e 14 49
e 14 50
e 14 59
e 14 63
e 14 69
e 15 29
e 15 30
e 15 41
e 15 46
e 15 50
e 15 53
e 15 57
e 15 60
e 15 69
e 15 73
e 15 75
e 15 80
e 16 18
e 16 36
e 16 41
e 16 42
e 16 52
e 16 53
e 16 62
e 16 75
e 17 29
e 17 30
e 17 31
e 17 32
e 17 35
e 17 48
e 17 51
e 17 75
e 17 76
e 17 77
e 17 78
e 17 79
e 17 80
e 18 26
e 18 31
e 18 32
e 18 37
e 18 46
e 18 53
e 18 70
e 19 27
e 19 35
e 19 41
e 19 42
e 19 51
e 19 53
e 19 62
e 19 64
e 19 65
e 20 25
e 20 26
e 20 27
e 20 29
e 20 32
e 20 37
e 20 38
e 20 45
e 20 49
e 20 63
e 20 64
e 20 67
e 20 68
e 20 71
e 20 72
e 20 80
e 21 24
e 21 27
e 21 29
e 21 39
e 21 41
e 21 43
e 21 50
e 21 58
e 21 67
e 21 75
e 21 80
e 22 26
e 22 28
e 22 33
e 22 34
e 22 37
e 22 38
e 22 41
e 22 43
e 22 49
e 22 50
e 22 56
e 22 59
e 22 62
e 22 67
e 22 76
e 22 78
e 23 28
e 23 41
e 23 43
e 23 45
e 23 49
e 23 54
e 23 57
e 23 63
e 23 65
e 23 66
e 23 68
e 23 71
e 23 73
e 23 80
e 24 26
e 24 30
e 24 34
e 24 42
e 24 45
e 24 47
e 24 53
e 24 55
e 24 59
e 24 63
e 24 64
e 24 68
e 24 69
e 24 74
e 25 43
e 25 44
e 25 67
e 25 68
e 25 73
e 25 74
e 25 78
e 25 79
e 26 36
e 26 37
e 26 39
e 26 41
e 26 43
e 26 45
e 26 47
e 26 51
e 26 52
e 26 72
e 26 73
e 26 76
e 27 28
e 27 29
e 27 46
e 27 48
e 27 55
e 27 58
e 27 59
e 27 61
e 27 62
e 27 65
e 27 74
e 27 77
e 27 78
e 28 29
e 28 39
e 28 43
e 28 47
e 28 50
e 28 52
e 28 54
e 28 57
e 28 68
e 29 32
e 29 34
e 29 37
e 29 45
e 29 50
e 29 51
e 29 58
e 29 62
e 29 64
e 29 74
e 29 75
e 30 32
e 30 33
e 30 40
e 30 51
e 30 54
e 30 61
e 30 69
e 30 71
e 30 73
e 30 79
e 31 44
e 31 52
e 31 54
e 31 65
e 31 67
e 31 68
e 31 70
e 32 36
e 32 51
e 32 71
e 32 77
e 33 35
e 33 37
e 33 38
e 33 47
e 33 48
e 33 70
e 33 72
e 33 75
e 33 80
e 34 38
e 34 41
e 34 48
e 34 70
e 34 71
e 35 42
e 35 48
e 35 51
e 35 52
e 35 62
e 35 63
e 35 74
e 35 76
e 35 77
e 36 43
e 36 50
e 36 51
e 36 56
e 36 63
e 36 65
e 36 67
e 36 70
e 36 72
e 37 45
e 37 47
e 37 53
e 37 58
e 37 60
e 37 66
e 37 73
e 37 76
e 37 79
e 38 45
e 38 48
e 38 54
e 38 63
e 38 64
e 38 74
e 38 75
e 39 47
e 39 58
e 39 61
e 39 65
e 39 68
e 40 41
e 40 42
e 40 51
e 40 58
e 40 61
e 40 63
e 40 66
e 40 75
e 40 76
e 40 79
e 41 49
e 41 52
e 41 54
e 41 58
e 41 59
e 41 62
e 41 73
e 41 77
e 41 78
e 42 45
e 42 51
e 42 52
e 42 58
e 42 64
e 42 67
e 42 68
e 42 71
e 42 72
e 43 45
e 43 48
e 43 49
e 43 50
e 43 54
e 43 63
e 43 65
e 43 67
e 43 75
e 44 48
e 44 51
e 44 54
e 44 55
e 44 56
e 44 61
e 44 65
e 44 72
e 44 75
e 44 77
e 45 47
e 45 48
e 45 53
e 45 56
e 45 73
e 45 78
e 46 49
e 46 51
e 46 57
e 46 61
e 46 66
e 46 68
e 46 70
e 46 71
e 46 73
e 46 76
e 46 79
e 47 53
e 47 80
e 48 50
e 48 51
e 48 63
e 48 65
e 48 76
e 48 77
e 48 78
e 48 79
e 49 55
e 49 56
e 49 58
e 49 65
e 49 66
e 49 67
e 49 71
e 49 72
e 49 76
e 50 51
e 50 52
e 50 53
e 50 68
e 50 74
e 51 55
e 51 57
e 52 54
e 52 58
e 52 60
e 52 74
e 52 75
e 52 77
e 53 54
e 53 65
e 53 67
e 53 68
e 53 71
e 53 73
e 54 55
e 54 56
e 54 62
e 54 64
e 54 71
e 54 75
e 55 57
e 55 58
e 55 59
e 55 61
e 55 62
e 55 65
e 55 66
e 55 69
e 56 57
e 56 68
e 56 71
e 56 78
e 57 65
e 57 70
e 57 73
e 57 76
e 58 63
e 58 69
e 58 77
e 59 67
e 59 69
e 59 73
e 59 74
e 60 63
e 60 75
e 60 78
e 61 75
e 61 79
e 62 65
e 62 78
e 63 71
e 63 73
e 63 76
e 64 66
e 64 70
e 64 74
e 65 76
e 65 78
e 66 72
e 66 75
e 66 79
e 67 70
e 67 71
e 67 77
e 67 78
e 68 75
e 69 70
e 69 71
e 69 74
e 69 77
e 70 73
e 70 76
e 71 80
e 72 78
e 72 79
e 74 78
e 74 79
e 74 80
e 76 79
e 77 78
